613
471
425
323
595
433
352
371
577
730
579
511
320
521
528
476
483
305
566
744
355
518
455
634
431
625
593
835
369
437
401
504
280
392
445
363
385
499
435
365
329
436
646
535
445
514
542
485
795
569
616
467
573
637
418
532
455
289
544
464
637
773
534
535
493
619
370
564
441
302
495
407
533
368
543
463
518
353
688
407
748
793
658
506
332
436
440
417
509
454
421
600
388
500
545
409
521
520
456
429
